local_stuff/sygus_stuff/sygus_inv_oai/sygus_cvc5/cvc_output_2_5min/38.c.out
STDOUT:
(
(define-fun inv-f ((c Int) (n Int) (tmp Int) (c_0 Int) (c_1 Int) (c_2 Int) (c_3 Int) (c_4 Int) (n_0 Int)) Bool (and (or (not (= c c_1)) (not (= n n_0)) (not (= c_1 n_0)) (>= c_1 0)) (>= n 1)))
)
